10 
3
5 5 -2 
0.000000 1.000000 0.000000 11.900000 4.000000 0.000000 10.200000 7.000000 0.000000 6.500000 
0 3 1 1 1.0 
0 3 2 2 -1.0
1 3 1 1 1.0 
1 3 2 2 -1.0 
1 1 1 1 0.800000
1 2 1 1 1.200000
2 1 1 2 0.800000
2 1 1 1 1
2 2 1 2 1.200000
2 2 1 1 -1
3 1 1 3 0.800000
3 1 2 2 0.800000
3 1 1 2 1
3 2 1 3 1.200000
3 2 2 2 1.200000
3 2 1 2 -1
4 1 1 4 0.800000
4 1 2 3 0.800000
4 1 1 3 1
4 1 2 2 1
4 2 1 4 1.200000
4 2 2 3 1.200000
4 2 1 3 -1
4 2 2 2 -1
5 1 1 5 0.800000
5 1 2 4 0.800000
5 1 3 3 0.800000
5 1 1 4 1
5 1 2 3 1
5 2 1 5 1.200000
5 2 2 4 1.200000
5 2 3 3 1.200000
5 2 1 4 -1
5 2 2 3 -1
6 1 2 5 0.800000
6 1 3 4 0.800000
6 1 1 5 1
6 1 2 4 1
6 1 3 3 1
6 2 2 5 1.200000
6 2 3 4 1.200000
6 2 1 5 -1
6 2 2 4 -1
6 2 3 3 -1
7 1 3 5 0.800000
7 1 4 4 0.800000
7 1 2 5 1
7 1 3 4 1
7 2 3 5 1.200000
7 2 4 4 1.200000
7 2 2 5 -1
7 2 3 4 -1
8 1 4 5 0.800000
8 1 3 5 1
8 1 4 4 1
8 2 4 5 1.200000
8 2 3 5 -1
8 2 4 4 -1
9 1 5 5 0.800000
9 1 4 5 1
9 2 5 5 1.200000
9 2 4 5 -1
10 1 5 5 1
10 2 5 5 -1
